p cnf 144 474
-3 -1 0
-3 2 0
1 -2 3 0
6 -4 0
6 -5 0
4 5 -6 0
-9 -7 0
-9 -8 0
7 8 9 0
10 -6 0
10 -9 0
6 9 -10 0
-3 10 -11 0
3 -10 -11 0
-3 -10 11 0
3 10 11 0
12 8 -13 0
-12 -8 -13 0
12 -8 13 0
-12 8 13 0
-14 -15 -16 0
14 15 -16 0
-14 15 16 0
14 -15 16 0
17 13 0
17 16 0
-13 -16 -17 0
18 -11 0
18 17 0
11 -17 -18 0
19 -2 0
19 -12 0
2 12 -19 0
-21 -20 0
-21 16 0
20 -16 21 0
23 22 0
23 -22 0
-24 -7 0
-24 23 0
7 -23 24 0
-26 24 0
-26 -25 0
-24 25 26 0
-28 27 0
-28 7 0
-27 -7 28 0
26 28 -29 0
-26 -28 -29 0
26 -28 29 0
-26 28 29 0
-30 21 0
-30 -29 0
-21 29 30 0
-19 -30 -31 0
19 30 -31 0
-19 30 31 0
19 -30 31 0
18 31 -32 0
-18 -31 -32 0
18 -31 32 0
-18 31 32 0
33 30 0
33 -13 0
-30 13 -33 0
-32 33 -34 0
32 -33 -34 0
-32 -33 34 0
32 33 34 0
-21 -30 -35 0
21 30 -35 0
-21 30 35 0
21 -30 35 0
36 35 0
36 -23 0
-35 23 -36 0
37 -13 0
37 -3 0
13 3 -37 0
1 -38 0
-1 -38 0
39 -37 0
39 -38 0
37 38 -39 0
40 14 0
40 -9 0
-14 9 -40 0
41 5 0
41 40 0
-5 -40 -41 0
-42 -39 0
-42 41 0
39 -41 42 0
43 36 0
43 -42 0
-36 42 -43 0
-34 43 -44 0
34 -43 -44 0
-34 -43 44 0
34 43 44 0
-45 4 0
-45 16 0
-4 -16 45 0
46 -4 0
46 -14 0
4 14 -46 0
47 46 0
47 25 0
-46 -25 -47 0
-48 45 0
-48 -47 0
-45 47 48 0
9 38 -49 0
-9 -38 -49 0
9 -38 49 0
-9 38 49 0
50 9 0
50 -49 0
-9 49 -50 0
22 -50 -51 0
-22 50 -51 0
22 50 51 0
-22 -50 51 0
52 -26 0
52 22 0
26 -22 -52 0
53 -52 0
53 4 0
52 -4 -53 0
54 1 0
54 13 0
-1 -13 -54 0
55 -21 0
55 -54 0
21 54 -55 0
56 53 0
56 55 0
-53 -55 -56 0
57 51 0
57 -56 0
-51 56 -57 0
58 48 0
58 -57 0
-48 57 -58 0
-59 13 0
-59 -37 0
-13 37 59 0
60 -58 0
60 59 0
58 -59 -60 0
-61 -20 0
-61 20 0
-61 46 -62 0
61 -46 -62 0
-61 -46 62 0
61 46 62 0
-22 62 -63 0
22 -62 -63 0
-22 -62 63 0
22 62 63 0
-64 2 0
-64 22 0
-2 -22 64 0
-65 63 0
-65 -64 0
-63 64 65 0
-66 4 0
-66 27 0
-4 -27 66 0
-65 66 -67 0
65 -66 -67 0
-65 -66 67 0
65 66 67 0
-9 -10 -68 0
9 10 -68 0
-9 10 68 0
9 -10 68 0
-69 -68 0
-69 -40 0
68 40 69 0
-70 -67 0
-70 -69 0
67 69 70 0
-60 70 -71 0
60 -70 -71 0
-60 -70 71 0
60 70 71 0
72 -47 0
72 54 0
47 -54 -72 0
-73 -20 0
-73 -72 0
20 72 73 0
74 20 0
74 -26 0
-20 26 -74 0
75 16 0
75 -4 0
-16 4 -75 0
74 75 -76 0
-74 -75 -76 0
74 -75 76 0
-74 75 76 0
77 -22 0
77 1 0
22 -1 -77 0
27 -77 -78 0
-27 77 -78 0
27 77 78 0
-27 -77 78 0
79 -76 0
79 -78 0
76 78 -79 0
-80 73 0
-80 -79 0
-73 79 80 0
81 71 0
81 80 0
-71 -80 -81 0
12 -5 -82 0
-12 5 -82 0
12 5 82 0
-12 -5 82 0
-83 -68 0
-83 52 0
68 -52 83 0
84 82 0
84 83 0
-82 -83 -84 0
86 -85 0
86 62 0
85 -62 -86 0
87 -2 0
87 86 0
2 -86 -87 0
87 72 -88 0
-87 -72 -88 0
87 -72 88 0
-87 72 88 0
89 88 0
89 10 0
-88 -10 -89 0
-90 84 0
-90 -89 0
-84 89 90 0
54 -87 -91 0
-54 87 -91 0
54 87 91 0
-54 -87 91 0
54 -63 -92 0
-54 63 -92 0
54 63 92 0
-54 -63 92 0
-61 49 -93 0
61 -49 -93 0
-61 -49 93 0
61 49 93 0
-94 92 0
-94 -93 0
-92 93 94 0
-95 91 0
-95 -94 0
-91 94 95 0
96 4 0
96 4 0
-4 -96 0
97 96 0
97 -27 0
-96 27 -97 0
98 -97 0
98 50 0
97 -50 -98 0
-99 98 0
-99 -62 0
-98 62 99 0
100 -20 0
100 14 0
20 -14 -100 0
-101 99 0
-101 100 0
-99 -100 101 0
102 95 0
102 -101 0
-95 101 -102 0
103 90 0
103 -102 0
-90 102 -103 0
104 -81 0
104 103 0
81 -103 -104 0
105 -37 0
105 -27 0
37 27 -105 0
-105 13 -106 0
105 -13 -106 0
-105 -13 106 0
105 13 106 0
-107 -50 0
-107 97 0
50 -97 107 0
108 -86 0
108 -107 0
86 107 -108 0
-12 108 -109 0
12 -108 -109 0
-12 -108 109 0
12 108 109 0
-110 -26 0
-110 -25 0
26 25 110 0
-111 -8 0
-111 -110 0
8 110 111 0
112 37 0
112 111 0
-37 -111 -112 0
-113 -37 0
-113 -3 0
37 3 113 0
-114 112 0
-114 -113 0
-112 113 114 0
-115 -109 0
-115 -114 0
109 114 115 0
116 -98 0
116 -108 0
98 108 -116 0
117 -115 0
117 -116 0
115 116 -117 0
106 117 -118 0
-106 -117 -118 0
106 -117 118 0
-106 117 118 0
120 30 0
120 -119 0
-30 119 -120 0
-10 -21 -121 0
10 21 -121 0
-10 21 121 0
10 -21 121 0
-122 120 0
-122 -121 0
-120 121 122 0
-118 122 -123 0
118 -122 -123 0
-118 -122 123 0
118 122 123 0
124 -104 0
124 -123 0
104 123 -124 0
-112 -4 -125 0
112 4 -125 0
-112 4 125 0
112 -4 125 0
126 125 0
126 110 0
-125 -110 -126 0
-127 25 0
-127 -126 0
-25 126 127 0
128 8 0
128 15 0
-8 -15 -128 0
128 23 -129 0
-128 -23 -129 0
128 -23 129 0
-128 23 129 0
-130 -127 0
-130 129 0
127 -129 130 0
-131 107 0
-131 -40 0
-107 40 131 0
-132 130 0
-132 131 0
-130 -131 132 0
-133 -49 0
-133 -49 0
49 133 0
-134 -10 0
-134 -133 0
10 133 134 0
135 -61 0
135 6 0
61 -6 -135 0
-136 38 0
-136 54 0
-38 -54 136 0
137 135 0
137 136 0
-135 -136 -137 0
139 -5 0
139 -138 0
5 138 -139 0
140 -137 0
140 139 0
137 -139 -140 0
-141 -134 0
-141 -140 0
134 140 141 0
142 -132 0
142 141 0
132 -141 -142 0
-143 124 0
-143 -142 0
-124 142 143 0
-144 44 0
-144 -143 0
-44 143 144 0
2 -137 0
-109 -5 144 -117 140 0
-10 82 0
-18 131 52 -72 0
-47 37 50 100 129 0
-38 -103 46 -95 140 0
-122 -30 -34 -110 0
85 8 -131 -19 0
98 -13 -105 26 0
-24 -20 102 96 0
-10 37 0
-62 86 48 0
78 49 -32 3 0
101 106 -92 71 -38 -2 0
-141 122 -44 0
-23 -12 -100 112 -121 -90 0
13 30 12 125 0
19 100 0
144 -130 -12 48 128 0
113 -32 110 0
18 119 21 99 10 0
-134 96 47 -57 -143 78 0
-108 -144 39 1 0
-26 94 35 0
84 45 -114 0
104 54 -8 77 32 0
18 -16 -140 -37 -58 113 0
-64 -65 -41 -26 55 0
5 87 37 -76 133 -40 0
-19 109 0
87 128 -4 -96 0
103 -85 121 58 0
14 -108 -81 142 0
-33 -10 -121 -83 0
-5 -78 -141 0
-142 -7 114 -139 -14 0
44 73 -133 85 17 0
85 36 46 0
-65 -69 76 -140 0
-90 -49 -40 19 0
37 -112 86 -5 0
-25 -107 10 -83 58 0
49 -25 -79 0
-90 -26 -115 0
49 -35 0
99 -56 50 43 79 0
-1 12 0
-9 126 113 2 0
121 -136 128 -86 129 0
-72 77 0
-131 24 -34 80 -78 0
126 -63 8 -60 0
-115 -93 0
-45 50 139 124 -14 0
-44 -118 -12 0
61 -27 0
124 104 144 -2 -6 80 0
16 -25 0
48 -62 139 70 -5 -21 0
82 -53 132 0
-118 101 67 -27 57 143 0
-122 82 0
144 0
